n = 70;
k = 1;
roles = [
{g, m},
{m, d},
{f, m},
{f, g},
{m, d},
{g, d},
{g, d},
{g, f},
{f, d},
{f, g},
{f, d},
{g, d},
{g, d},
{g, d},
{m, g},
{f, m},
{g, d},
{g, m},
{d, f},
{f, g},
{g, f},
{d, f},
{d, f},
{f, d},
{d, f},
{f, g},
{g, m},
{f, d},
{f, d},
{g, m},
{d, g},
{d, m},
{f, d},
{f, d},
{g, d},
{d, m},
{m, g},
{d, m},
{f, g},
{m, f},
{d, m},
{d, g},
{m, d},
{m, f},
{m, d},
{d, m},
{m, d},
{f, g},
{f, d},
{m, d},
{d, f},
{g, f},
{m, d},
{f, d},
{m, f},
{m, d},
{f, m},
{m, d},
{m, f},
{g, d},
{m, f},
{d, f},
{d, m},
{m, f},
{g, f},
{f, g},
{f, m},
{g, f},
{f, m},
{d, m}
];
num_pairs = 5;
player1 = [15, 65, 60, 50, 63];
player2 = [12, 34, 18, 1, 11];
